(set-info :origin "SVCOMP13 benchmarks generated by Arie Gurfinkel")
(set-info :status unsat)
(set-logic HORN)
(declare-fun cp-rel-bb1.i.i (Real Real Real) Bool)
(declare-fun cp-rel-entry () Bool)
(declare-fun cp-rel-bb1.i.i21.i.i () Bool)
(assert |cp-rel-entry|)
(assert (forall ((?A Real) (?B Real) (?C Real) (?D Bool) )(let (($x490360 (and |cp-rel-entry| (<= ?C 1.0) (>= ?B 0.0) (<= ?B 0.0) (>= ?A 0.0) (<= ?A 0.0) (= ?D true) (>= ?C 1.0))))
(=> $x490360 (|cp-rel-bb1.i.i| ?A ?B ?C))))
)
(assert (forall ((?A Real) (?B Real) (?C Real) (?D Real) (?E Real) (?F Real) (?G Bool) (?H Bool) (?I Bool) (?J Bool) (?K Bool) (?L Bool) (?M Real) (?N Real) (?O Bool) (?P Bool) (?Q Bool) (?R Bool) (?S Bool) (?T Bool) (?U Real) (?V Real) (?W Bool) (?X Bool) (?Y Bool) (?Z Bool) (?A1 Bool) (?B1 Bool) (?C1 Real) (?D1 Real) (?E1 Bool) (?F1 Bool) (?G1 Bool) (?H1 Bool) (?I1 Bool) (?J1 Bool) (?K1 Real) (?L1 Real) (?M1 Bool) (?N1 Bool) (?O1 Real) (?P1 Bool) (?Q1 Real) (?R1 Real) (?S1 Bool) (?T1 Bool) (?U1 Real) (?V1 Bool) (?W1 Bool) (?X1 Bool) (?Y1 Bool) )(let (($x125706 (|cp-rel-bb1.i.i| ?D ?E ?F)))
(let (($x194825 (= ?N1 (or ?Y1 ?X1))))
(let (($x332355 (or (not ?G) (and ?H ?I (not ?J)))))
(let (($x590032 (or (not ?G) ?I)))
(let (($x413838 (not ?K)))
(let (($x358125 (or $x413838 (and ?G ?L (<= ?M ?N) (>= ?M ?N)) (and ?H ?O ?J (<= ?M ?C) (>= ?M ?C)))))
(let (($x426833 (or $x413838 (and ?L (not ?O)) (and ?O (not ?L)))))
(let (($x860570 (or (not ?P) (and ?K ?Q (not ?R)))))
(let (($x255297 (or (not ?P) ?Q)))
(let (($x579671 (not ?S)))
(let (($x312503 (or $x579671 (and ?P ?T (<= ?U ?V) (>= ?U ?V)) (and ?K ?W ?R (<= ?U ?B) (>= ?U ?B)))))
(let (($x875702 (or $x579671 (and ?T (not ?W)) (and ?W (not ?T)))))
(let (($x112218 (or (not ?X) (and ?S ?Y (not ?Z)))))
(let (($x316475 (or (not ?X) ?Y)))
(let (($x34132 (or (not ?A1) (and ?X ?B1 (<= ?C1 ?D1) (>= ?C1 ?D1)) (and ?S ?E1 ?Z (<= ?C1 ?M) (>= ?C1 ?M)))))
(let (($x884832 (or (not ?A1) (and ?B1 (not ?E1)) (and ?E1 (not ?B1)))))
(let (($x627010 (or (not ?F1) (and ?A1 ?G1 ?H1))))
(let (($x88284 (or (not ?F1) ?G1)))
(let (($x445817 (not ?I1)))
(let (($x771496 (or $x445817 (and ?F1 ?J1 (<= ?K1 ?L1) (>= ?K1 ?L1)) (and ?A1 ?M1 (not ?H1) (<= ?K1 ?A) (>= ?K1 ?A)))))
(let (($x621984 (or $x445817 (and ?J1 (not ?M1)) (and ?M1 (not ?J1)))))
(let (($x586582 (= ?I1 true)))
(let (($x270185 (= ?N1 true)))
(let (($x650142 (= ?J (= ?O1 0.0))))
(let (($x267482 (= ?Q1 (ite ?P1 1.0 0.0))))
(let (($x326027 (= ?R (= ?R1 0.0))))
(let (($x211682 (= ?V (ite ?S1 1.0 0.0))))
(let (($x197986 (= ?T1 (not (<= ?M 0.0)))))
(let (($x326770 (= ?U1 (+ (~ 1.0) ?M))))
(let (($x579632 (= ?D1 (ite ?T1 ?U1 ?M))))
(let (($x926058 (= ?V1 (not (<= ?C1 1.0)))))
(let (($x508329 (= ?H1 (and ?V1 ?Z))))
(let (($x209825 (= ?W1 (= ?U 0.0))))
(let (($x174579 (= ?X1 (not (= ?C1 0.0)))))
(let (($x57730 (= ?Y1 (= ?K1 0.0))))
(let (($x564768 (and (|cp-rel-bb1.i.i| ?A ?B ?C) $x57730 $x174579 (= ?L1 (ite ?W1 1.0 ?A)) $x209825 $x508329 $x926058 $x579632 $x326770 $x197986 (= ?Z (= ?A 0.0)) $x211682 (= ?S1 (= ?B 0.0)) $x326027 (= ?N (+ ?Q1 ?C)) $x267482 (= ?P1 (not (<= 2.0 ?C))) $x650142 (>= ?F ?C1) (<= ?F ?C1) (>= ?E ?U) (<= ?E ?U) (>= ?D ?K1) (<= ?D ?K1) $x270185 $x586582 $x621984 $x771496 $x88284 $x627010 $x884832 $x34132 $x316475 $x112218 $x875702 $x312503 $x255297 $x860570 $x426833 $x358125 $x590032 $x332355 $x194825)))
(=> $x564768 $x125706))))))))))))))))))))))))))))))))))))))
)
(assert (forall ((?A Real) (?B Real) (?C Real) (?D Bool) (?E Bool) (?F Bool) (?G Bool) (?H Bool) (?I Bool) (?J Real) (?K Real) (?L Bool) (?M Bool) (?N Bool) (?O Bool) (?P Bool) (?Q Bool) (?R Real) (?S Real) (?T Bool) (?U Bool) (?V Bool) (?W Bool) (?X Bool) (?Y Bool) (?Z Real) (?A1 Real) (?B1 Bool) (?C1 Bool) (?D1 Bool) (?E1 Bool) (?F1 Bool) (?G1 Bool) (?H1 Real) (?I1 Real) (?J1 Bool) (?K1 Bool) (?L1 Real) (?M1 Bool) (?N1 Real) (?O1 Real) (?P1 Bool) (?Q1 Bool) (?R1 Real) (?S1 Bool) (?T1 Bool) (?U1 Bool) (?V1 Bool) )(let (($x194825 (= ?K1 (or ?V1 ?U1))))
(let (($x332355 (or (not ?D) (and ?E ?F (not ?G)))))
(let (($x590032 (or (not ?D) ?F)))
(let (($x413838 (not ?H)))
(let (($x438900 (or $x413838 (and ?D ?I (<= ?J ?K) (>= ?J ?K)) (and ?E ?L ?G (<= ?J ?C) (>= ?J ?C)))))
(let (($x426833 (or $x413838 (and ?I (not ?L)) (and ?L (not ?I)))))
(let (($x860570 (or (not ?M) (and ?H ?N (not ?O)))))
(let (($x255297 (or (not ?M) ?N)))
(let (($x579671 (not ?P)))
(let (($x837781 (or $x579671 (and ?M ?Q (<= ?R ?S) (>= ?R ?S)) (and ?H ?T ?O (<= ?R ?B) (>= ?R ?B)))))
(let (($x875702 (or $x579671 (and ?Q (not ?T)) (and ?T (not ?Q)))))
(let (($x112218 (or (not ?U) (and ?P ?V (not ?W)))))
(let (($x316475 (or (not ?U) ?V)))
(let (($x34132 (or (not ?X) (and ?U ?Y (<= ?Z ?A1) (>= ?Z ?A1)) (and ?P ?B1 ?W (<= ?Z ?J) (>= ?Z ?J)))))
(let (($x884832 (or (not ?X) (and ?Y (not ?B1)) (and ?B1 (not ?Y)))))
(let (($x627010 (or (not ?C1) (and ?X ?D1 ?E1))))
(let (($x88284 (or (not ?C1) ?D1)))
(let (($x445817 (not ?F1)))
(let (($x414835 (or $x445817 (and ?C1 ?G1 (<= ?H1 ?I1) (>= ?H1 ?I1)) (and ?X ?J1 (not ?E1) (<= ?H1 ?A) (>= ?H1 ?A)))))
(let (($x621984 (or $x445817 (and ?G1 (not ?J1)) (and ?J1 (not ?G1)))))
(let (($x586582 (= ?F1 true)))
(let (($x650142 (= ?G (= ?L1 0.0))))
(let (($x267482 (= ?N1 (ite ?M1 1.0 0.0))))
(let (($x326027 (= ?O (= ?O1 0.0))))
(let (($x211682 (= ?S (ite ?P1 1.0 0.0))))
(let (($x197986 (= ?Q1 (not (<= ?J 0.0)))))
(let (($x326770 (= ?R1 (+ (~ 1.0) ?J))))
(let (($x579632 (= ?A1 (ite ?Q1 ?R1 ?J))))
(let (($x926058 (= ?S1 (not (<= ?Z 1.0)))))
(let (($x508329 (= ?E1 (and ?S1 ?W))))
(let (($x209825 (= ?T1 (= ?R 0.0))))
(let (($x174579 (= ?U1 (not (= ?Z 0.0)))))
(let (($x57730 (= ?V1 (= ?H1 0.0))))
(let (($x125706 (|cp-rel-bb1.i.i| ?A ?B ?C)))
(let (($x866120 (and $x125706 $x57730 $x174579 (= ?I1 (ite ?T1 1.0 ?A)) $x209825 $x508329 $x926058 $x579632 $x326770 $x197986 (= ?W (= ?A 0.0)) $x211682 (= ?P1 (= ?B 0.0)) $x326027 (= ?K (+ ?N1 ?C)) $x267482 (= ?M1 (not (<= 2.0 ?C))) $x650142 (not (= ?K1 true)) $x586582 $x621984 $x414835 $x88284 $x627010 $x884832 $x34132 $x316475 $x112218 $x875702 $x837781 $x255297 $x860570 $x426833 $x438900 $x590032 $x332355 $x194825)))
(=> $x866120 |cp-rel-bb1.i.i21.i.i|)))))))))))))))))))))))))))))))))))))
)
(assert (not cp-rel-bb1.i.i21.i.i))
(check-sat)
